10	5
0	5	3	4	2	1	5
1	1	7
2	2	8	11
3	2	9	8
4	1	6
5	2	10	8
6	2	10	9
7	1	11
8	1	11
9	1	11
10	1	11
11	0
0	0	0	0	0	0	0
1	3	2	2	2	2	1
2	10	5	5	2	0	3
3	1	5	3	1	2	4
4	3	4	4	5	0	5
5	6	0	1	3	5	4
6	6	5	2	0	5	0
7	3	2	0	0	0	4
8	1	4	3	1	3	0
9	7	3	1	0	3	1
10	7	5	0	0	4	4
11	0	0	0	0	0	0
9	8	7	7	8
